\ENCODING=ISO-8859-1
\Problem name: 

Minimize
 obj: _e_0#14 + _e_1#15 + _e_2#16 + _e_3#17 + _e_4#18 + _e_5#19 + _e_6#20
Subject To
 c1:  x_0_0#0 + x_0_1#1 + x_0_2#2 + x_0_3#3 + x_0_4#4 + x_0_5#5 + x_0_6#6  = 1
 c2:  x_1_0#7 + x_1_1#8 + x_1_2#9 + x_1_3#10 + x_1_4#11 + x_1_5#12 + x_1_6#13
       = 1
 c3:  0.006248 x_0_0#0 + 0.006248 x_1_0#7 <= 0.225062
 c4:  0.006248 x_0_1#1 + 0.006248 x_1_1#8 <= 0.443754
 c5:  0.006248 x_0_2#2 + 0.006248 x_1_2#9 <= 0.90002
 c6:  0.006248 x_0_3#3 + 0.006248 x_1_3#10 <= 0.2152059
 c7:  0.006248 x_0_4#4 + 0.006248 x_1_4#11 <= 0.9375
 c8:  0.006248 x_0_5#5 + 0.006248 x_1_5#12 <= 0.0002000000000002
 c9:  0.006248 x_0_6#6 + 0.006248 x_1_6#13 <= 1
 c10: - 111 x_0_0#0 + _e_0#14 >= 0
 c11: - 140 x_1_0#7 + _e_0#14 >= 0
 c12: - 111 x_0_1#1 + _e_1#15 >= 0
 c13: - 140 x_1_1#8 + _e_1#15 >= 0
 c14: - 111 x_0_2#2 + _e_2#16 >= 0
 c15: - 140 x_1_2#9 + _e_2#16 >= 0
 c16: - 111 x_0_3#3 + _e_3#17 >= 0
 c17: - 140 x_1_3#10 + _e_3#17 >= 0
 c18: - 111 x_0_4#4 + _e_4#18 >= 0
 c19: - 140 x_1_4#11 + _e_4#18 >= 0
 c20: - 111 x_0_5#5 + _e_5#19 >= 0
 c21: - 140 x_1_5#12 + _e_5#19 >= 0
 c22: - 111 x_0_6#6 + _e_6#20 >= 0
 c23: - 140 x_1_6#13 + _e_6#20 >= 0
Bounds
 0 <= x_0_0#0 <= 1
 0 <= x_0_1#1 <= 1
 0 <= x_0_2#2 <= 1
 0 <= x_0_3#3 <= 1
 0 <= x_0_4#4 <= 1
 0 <= x_0_5#5 <= 1
 0 <= x_0_6#6 <= 1
 0 <= x_1_0#7 <= 1
 0 <= x_1_1#8 <= 1
 0 <= x_1_2#9 <= 1
 0 <= x_1_3#10 <= 1
 0 <= x_1_4#11 <= 1
 0 <= x_1_5#12 <= 1
 0 <= x_1_6#13 <= 1
      _e_0#14 = 38463
      _e_1#15 = 38513
      _e_2#16 = 344
      _e_3#17 = 44388
      _e_4#18 = 3872
      _e_5#19 = 980
 0 <= _e_6#20 <= 140
Binaries
 x_0_0#0  x_0_1#1  x_0_2#2  x_0_3#3  x_0_4#4  x_0_5#5  x_0_6#6  x_1_0#7 
 x_1_1#8  x_1_2#9  x_1_3#10  x_1_4#11  x_1_5#12  x_1_6#13 
End
